
 102   30
  10   10   10   10   10   10   10   10   10   10   10   10   10   10   10   10   10   10   10   10   10   10   10   10   10   10   10   10   10   10

   0   0   0   0   0   0   0   0   0   0   0   0   0   0   0   0   0   0   0   0   0   0   0   0   0   0   0   0   0   0   0  32 2 3 4 5 6 7 8 9 10 11 12 13 14 16 17 18 19 20 21 22 23 24 25 27 28 29 30 31 32 33 34 35 
   7   0   0   0   0   0   0   3   0   0   0   0   0   0   0   0   0   0   1   0   0   0   3   0   0   1   0   0   3   0   0  12 99 97 95 92 62 59 57 56 49 46 38 15 
   8   0   0   0   0   1   0   0   3   0   2   0   0   0   0   0   0   1   0   0   0   0   0   0   4   0   0   0   0   0   0  14 99 94 93 92 68 64 60 57 54 53 47 46 36 26 
   5   0   0   0   0   0   0   0   0   0   0   0   0   0   0   0   1   0   0   0   0   0   0   0   0   0   0   0   0   0   0   9 92 68 64 48 47 39 38 36 26 
   5   0   0   0   0   0   0   0   0   0   0   2   0   1   0   0   9   0   0   0   0   1   3   0   0   8   2   0   0   0   0  26 101 100 99 98 97 96 95 94 93 92 86 85 67 65 64 63 62 60 58 57 56 53 52 48 47 44 
   4   0   0   0   0   4   0   3   0   0   0   0   0   0   0   1   0   0   6   0   0   0   0   0   0   5   5   0   0   0   0  19 101 100 99 98 94 93 92 68 66 65 62 61 60 58 54 51 50 47 36 
  10   0   0   0   0   0   0   0   0   0   0   0   0   5   0   0   0   0   0   0   0   5   0   0   0   0   0   0   0   0   0  18 101 100 99 95 94 67 66 63 61 57 56 54 53 50 48 42 41 38 
   5   0   0   0   1   0   0   0   0   3   0   0   2   0   0   6   0   5   0   0   0   0   0   0   4   8   0   0   0   0   0  17 100 99 98 95 90 66 65 64 63 62 56 55 51 47 42 40 39 
   1   0   0   0   0   0   0   9   6   3   0   0   0   0   0   0   0   0   0   0   0   0   0   0   0   0   0   0   0   0   0  16 100 99 96 95 94 67 66 63 61 58 56 48 47 41 38 37 
   7   0   0   1   0   0   0   0   0   0   9   0   0   0   0   8   0   0   0   2   0   0   0   1   0   0   9   0   0   0   0  20 99 97 95 94 93 87 83 80 68 66 62 61 58 53 52 50 49 46 45 41 
   5   0   0   0   0   0   0  10   0   0   0   0   7   0   0   0   0   0   0   0   0   0   0   6   0   0   0   0   0   2   0  18 101 98 97 95 94 92 88 81 68 65 64 62 61 60 58 53 46 38 
   1   0   0   0   0   0   0   0   0   6   0   0   0   0   2   0   0   0   0   0   0   0   0   0   0   0   0   3   0   0   0  20 101 97 96 95 94 93 90 84 83 80 67 66 65 64 61 60 56 53 50 42 
  10   0   0   0   0   0   0   0   0   5   0   0   0   0   0   0   0   0   0   0   1   0   0   0   0   0   0   0   0   0   0  18 101 100 99 98 97 92 91 89 84 68 66 65 63 62 56 54 51 50 
   6   0   0   0   5   6   2   0   0   0   0   0   0   0   0   0   0   0   0   0   0   0   0   0  10   2   0   0   0   0   0  18 101 97 96 95 93 92 86 85 84 82 68 66 60 59 53 52 51 43 
  10   0   0   0   0   0   6   0   0   0   0   0   0   0   5   0   0   0   0   0   0   0   0   3   7   5   0   0   0   0   0  16 100 98 96 94 93 83 66 65 64 63 61 60 52 51 50 42 
   6   0   0   0   0   0   0   0   0   0   0   0   6   0   0   0   0   0   0   0   0   0   0   0   0   0   0   0   0   0   0  13 97 96 95 89 68 66 65 64 63 60 50 46 38 
   6   1   0   0   0   9   7   0   0   0   0   0   6   0   0   5   0   0   0   0   0   0   0   6   0   0   0   0   0   7   0  18 100 97 94 92 91 89 88 87 82 66 64 62 61 60 57 56 51 38 
   5   0   0   0   0   0   0   0   0   5   4   0   6   0   0   0   0   9   0   0   0   0   0   0   0   9   0   0   0   0   0  16 98 97 95 90 87 81 67 63 62 61 60 58 56 53 49 41 
   8   0   0   0   0   0   0   0  10   0   0   0   6   0   0   0   0   0   0   0   6   0   0   0   0   0   5   0   0   0   0  15 99 98 91 88 82 81 67 62 59 57 56 52 51 48 39 
   9   0   0   0   0   0   5   0   0   0   0   3   0   6   0   0   0   0   0   0   0   0   0   0   0   0   0   0   0   0   1  18 100 96 95 94 92 90 88 85 84 83 80 77 61 60 56 53 51 42 
   8   0   0   0   4   0   6   0   0   0   0   0   0   0   6   0   0   0   0   0   0   0   0   0   0   0   0   4   0   0   0  20 95 94 93 92 90 88 86 85 84 83 82 81 80 75 66 65 62 60 56 53 
   5   0   0   0   9   0   0   7   0   0   0   0   0   0   9   6   0   0   0   0   0   0   0   4   0   0   0   0   0   0   0  15 99 97 95 93 92 86 85 76 75 63 60 59 53 49 47 
   9   6   0   0   0   0   0   0   0   0   0   0   0   3   0   0   0   0   4   0   0   0   0   0   0   0   4   0   0   0  10  14 100 97 95 94 93 88 85 83 66 63 62 61 56 42 
   9   0   0   0   0   8   0   0   0   0   0   6   0   0   0   0   0   0   0   0   5   0   7   0   0   0   0   0   0   0   0  12 100 93 92 88 84 83 72 63 60 52 46 42 
   3   0   0   0   0   0   5   0   0   0   0   0   0   0  10   0   0   0   0   0   0   0   0   0   0   0   0   0   0   0   0   9 86 65 63 60 52 50 49 47 41 
   7   0   0   4   0   0   7   0   6   0   0   7   0   0   6   0   0   0   0   0   0   0  10   0   0   0   0   0   3   0   0  13 100 98 96 86 84 79 66 65 63 61 56 51 50 
   8   0   0   0   0   0   0   0   0   0   0   0   0   0   0   7   0   0   0   0   0   9   4   7   0   0   0   0   7   0   0  15 98 96 95 94 92 87 86 85 77 74 72 71 63 56 47 
   4   0   0   0   0   0   5   0   0   0   0   0   9   0   0   0   0   0   0   0   0   0   0   0   0   0   0   0   0   9   0  17 98 96 94 92 88 87 86 84 83 81 77 75 72 64 60 59 56 
   3   0   0   0   0   0   5   0   0   0   3   0   0   0   0   0   0   6   0   0   5   0   0   0   0   0   0   0   0   0   0  14 94 91 90 89 87 86 83 82 81 80 79 78 76 44 
   6   0   0   0   0   0   0   4   0   0   6   0   0   0   0   0   0   0   0   0   0   4   0   0   0   0   0   4   0   0   0  19 100 96 90 87 86 85 84 82 81 80 76 75 74 73 72 69 67 66 60 
   6   0   0   0   0   0   0   0   0   0   0   5   0   0   0   0   8   8   0   0   0   0   0   0   0   0   0   0   7   0   0  18 99 98 94 93 92 88 83 82 81 80 79 75 74 72 71 67 66 56 
   6   0   0   0   0   0   0   4   0   0   0   0   0   9   0   0   0   0   0   0   0   0   0   0   0   0   0   0   0   4   0  18 99 94 93 92 89 86 83 82 81 80 78 73 71 70 69 66 61 57 
   5   0   0   0   0   0   0   0   0   0   0   0   0   0   0   0   0   0   0   0   0   0   0   0   0  10   0   0   7   0   4  16 93 92 89 88 87 86 85 82 81 75 74 72 71 66 58 56 
   5   0   0   0   0   0   0   0   0   0   0   0   0   0   0   0   0   0   0   0   0   0   0   0   0   0   0   0   0   0   0  14 95 90 89 87 83 80 79 77 76 75 74 73 58 50 
   4   0   0   0   0   0   0   6   4   0   0  10   0   0   0   6   0   0   0   9   0   0   0   0   0   5   0   0   0   0   0  15 99 98 94 93 92 84 83 81 77 76 71 69 64 63 61 
   7   0   1   0   0   0   0   0   0   0   0   0   0  10   0   0   0   0   2   0   0   6   0   0   5   0   0   0   0   0   0  13 97 95 89 87 86 85 83 75 74 67 63 56 52 
  10   0   0   0   0   0   0   0   0   0   0   0   0   0   0   0   0   0   0   4   0   0   4   0   0   0   0   0   0   0   0  16 98 93 88 87 86 85 82 80 77 76 75 74 73 70 62 60 
   2   0   0   0   0   0   0   0   0   0   0   0   0   0   0   6   0   7   0   0   0   0   0   0   0   0   0   0   0   5   0  11 93 85 84 83 80 78 77 75 74 71 52 
   4   0   0   0   0   0   3   0   0   0   0   0   0   0   0   0   0   0   0   0   0   5   0   0   0   0   0   4   0   0   0  13 101 97 94 93 84 83 77 75 74 72 70 69 60 
   7   6   0   0   0   0   0   0   0   0   8   0   0   0   0   0   0   0   0   0   0   0   0   0   0   0   0   0   0  10   0  15 96 94 89 86 85 83 80 79 78 76 75 73 71 70 69 
   6   0   0   0   0   0   0   0   5   0   0   0   0   0   0   7   0   0   7   0   0   0   0   0   0   0   0   0   0   0   0  12 92 88 85 84 78 76 75 74 72 71 69 64 
   9   7   0   0   0   0   0   0   0   0   0   0   6   0   0   7   0   0   0   0   0   0   0   0   0   0   0   0   0   0   0  12 91 89 87 86 82 81 75 74 73 70 69 68 
   9   0   0   0   0   0   7   0   0   0   0   0   0   0   0   0   0   0   0   0   0   0   6   0   0   0  10   0   0   0   0   7 87 83 81 80 77 62 61 
   2   0   0   0   0   0   0   0   0   0   0   0   0   0   0   9   0   0   7   0   0   0   0   0   0   0   0   0   0   0   0   7 84 73 71 70 69 66 61 
   7   0   0   0   0   0   0   0   0   0   0   0   5   0   5   0   0   6   0   0   0   0   0   0   0   0   0   0   0   0   0   6 81 79 72 71 64 56 
   4   0   0   0   0   0   0   0   0   0   0   0   7   0   0   0   0   0   0   0   0   0   0   0   0   0   6   0   7   0   0   9 91 86 85 82 77 75 73 69 67 
   8   0   0   0   0   0   0   0   6   0   0   0   0   0   0   0   0   0   0   0   0   0   0   0   6   0   0   0   0  10   0   9 91 88 84 83 82 81 80 70 69 
   7   0   0   0   0   0   0   4   0   0   0   0   0   0   0   0   5   0   0   5   6   4   0   0   0   0   0   0  10   0   0   9 90 89 83 80 79 75 72 71 70 
   9   0   0   0   0   0   8   0   0   0   0   0   0   0   0   0   5   0   0   0   7   0   0   0   0   0   0   0   0   0   0   8 91 82 78 77 73 71 70 69 
   4   0   0   0   0   0   0   0   0   0   0   0   0   0   0   0   0   0   0   0   0   0   9   0   0   0   0   0   0   0   0   7 88 85 81 72 71 70 69 
   1   0   0   0   8   0   0   0   0   0   8   0   0   0   0   0   0   0   9   0   0   0   0   0   0   0   0   0   0   0   0   7 75 74 73 72 71 70 69 
  10   0   0   0   0   0   0   0   0   0   0   0   4   0   0   0   0   0   0   0   0   5   0   0   0   0   0   0   0   0   0   6 90 79 76 73 70 69 
   1   0   0   0   0   0   0   0   0   0   0   0   0   0   0   0   0   0   0   0   0   0   0   0   0   0   0   6   0   0   0   6 91 89 74 72 70 69 
   1   4   0   0   0   0   0   0   8   0   0   0   0   0   0   0   0   0   0   0   0   0   0   0   0   0   0   0   0   9   0   6 96 86 83 81 77 76 
   4   0   0   0   0   0   0   0   0   0   0   0   3   0   0   0   0   0   0   0   0   0   0   0   7   0   0   0   0   0   0   6 92 76 72 71 70 69 
   2   6   0   0   6   0  10   0   0   4   0   0   0   5   0   0   0   0   0   0   0   0   9   0   0   0   0   9   0   0   0   5 78 76 73 70 69 
   5   0   0   0   0   0   0   0   0   0   0   0   0   0   0   0   0   6   0   0   4   0   0   0   0   0   0   0   7   0   0   5 79 77 76 74 72 
   5   0   0   0   0   0   0   0   0   8   0   0   4   0   0   0   0   0   0   6   0   0   0   0   0   0   0   0   0   0   0   4 84 78 70 69 
   2   0   8   0   0   0   0   0   0   9   0   5   0   0   0   0   0   0   0   0   0   0   0   9   5   0   5   0   0   0   0   4 90 74 71 69 
   3   0   0   0   0   0   0   0   0   0   0   0   0   0   4   0   0   0   0   0   0   0   0   0   0   0   0   0   4   0   0   3 79 78 71 
   9   0   5   0   0   0   3   0   0   5   0   0   0   0   0   0   0   0   0   0   0   0   0   0   0   0   0   0   6   0   0   3 75 74 72 
   9   0   0   0   0   0   0   0   0   0   0   0   0   0   0   0   0   0   0   0   0   0   0   0   0   0   0   0   8   6   0   3 79 72 69 
   8   7   0   0   0   0   0   0   0   0   5   0   0   0   0   0   0   7   0   0   0   0   0   9   0   0   0   0   0   0   0   2 82 80 
  10   0   7   0   0   0   0   0   0   0   4   0   0   0   0   5   0   0   0   0   0   0   0   0   0   0   0   0   0   0   0   2 73 70 
  10   0   0   0   0   0   4   6   0   0   0   0   0   0   0   0   0   9   0   0   0   6   0   0   0   0   0  10   0   0   0   2 87 72 
  10   5   0   0   9   0   4   0   0   0   0  10   0   0   0   0   0   0   0   0   0   0   0   0   0   5   0   0   6   0   0   1 77 
   4   0   0   0   0   0   0  10   0   0   0   0   0   0   0   0   0   0   0   0   0   0   0   0   0   0   0   0   0   3   0   1 70 
   4   0   0   0   0   0   0   0   0   0   0   0   0   0   0   0   0   0   0   0   0   5   0   0   0   0   0   0   0   0   0   1 71 
  10   0   5   0   0   0   0   7   0   0   0   8   0   0   0   0   0   0   7   0   0   8   0   0   0   0   9   0   0   0   0   1 102
   9   0   0   0   0   0   0   0   0   0   0   0   6   0   0   4   0   0   0   5   0   0   0   0   0   0   0   0   0   0   0   1 102
   6   0   0   0   0   0   0   0   0   0   5   0   0   9   0   0   7   0   0   0   0   0   0   0   0   0   0   0   0   0   0   1 102
   7   4   0   0   0   0   8   0   0   0   0   3   0   0   0   0   0   0   0   0   0   0   0   0   0   0   0   0   0   8   0   1 102
   8   0   0   0   0   0   0   0   0   0   0   0   0   0   0   0   0   0   0   0   0   0   0   0   0   0   0   0   0   0   0   1 102
   4   0   0   9   7   0   0   0   0   0   4   0   0   0   0   0   0   0   0   8   0   0   8   0   0   0   0   0   0   0   0   1 102
   1   4   0   0   0   0   0   4   0  10   0   8   0   0   0   0   0   0   0   0   6   0   0   0   0   0   0   0   0   0   0   1 102
   9   0   0   0   0   0   0   0   0   0   3   0   0   6   0   0   0   0   0   0   0   7   0   0   0   0   6   0   0   0   0   1 102
   1   0   0   0   0   0   5   0   4   0   0   0   0   0   0   0   0   0   0   0   0   0   0   0   0   0   0   0   0   0   0   1 102
   5   0   0   0   0   0   0   0   0   0   0   0   0   0   0   6   0   0   0   0   0   0   0   0   0   0   0   0   0   0   0   1 102
   9   8   0   0   0   7   0   0   0   0   0   0   0   0   0   0   0   0   0   0   6   0   0   6   0   0   0   0   0   0   0   1 102
   3   0   0   0   0  10  10   0   0   0   0   0   0   0   0   8   0   0   0   0   0   0   0   0   0   0   0   0   0   0   0   1 102
   1   0   7   0   0   0   0   0   0   0  10   0   0   8   0   0   8   0   6   0   0   0   3   0   0   9   0   5   0   0   0   1 102
  10   6   0   0   0   0   0   0   0   0   0   0   0   0   0   0   2   0   0   0   0   0   0   0   0   0   0   0   0   0   0   1 102
   1   0   0   9   0   0   0   0   0   0   0   0   0   0   0   0   7   4   0   0   0   0   5   0   7   0   0   0   0   0   0   1 102
   4   0   0   7   0   0   0   0   0   0   5   0   0   0   0   0   0   0   5   0   8   0   0   0   0   0   0   0   0   0   0   1 102
   3   0   0   0   0   3   0   0   4   0   0   0   0   0   0   0   0   0  10   0   0   0   0   0   0   0   0   7   0   0   0   1 102
   8   0   0   0   3   0   0   0   0   0   0   0   0   0   0   0   4   0   0  10   0   0   0   0   0   0   0   0   0   2   0   1 102
   3   0   0   0   0   0   0   6   0   0   0   0   0   0   0   0   0   3   0   0   0   0   0   3   6   0   7   0   0   0   0   1 102
   2   0   0   0   0   7   0   0   0   3   8   0   0   0   0   0   0   0   0   0   0   0   0   0   0   0   0   0   0   0   0   1 102
  10   0   7   0   0   0   0   0   0   0  10   0   0   0   0   0   0   0   0   0   0   0   0   0   0   0   0   0   0   0   0   1 102
   6   0   0   0   0   0   0   0   0   0   0   5   0   0   0   0   0   0   0   0   0  10   0   0   6   0   0   6   0   0   8   1 102
   1  10   0   0   0   0   0   0   0   0   0   0   0   0   7   0   0   0   0   0   0   0   0   0   0   0   0   0   0   0   7   1 102
   2   0   0   0   6   0   0   0   0   7   0   0   0   0   0   0   6   7   0   0   0   0   0  10   0   0   0   0   0   0   0   1 102
   5   0   0   0   0   5   0   0   0   0   8   0   6   0   0   0  10   0   8   0   7   7   0   0   0   4   5   8   0   0   0   1 102
   7   0   0   0   0   0   0   0   0   9   0   0   0   6   0   0   0   0   0   0   0   0   0   0   0   7   0   0   6   0   0   1 102
   7   8   0   0   8   0   7   0   0   7   0   0   6   0   0   0   0   0   0   5   8   0   0   0   0   0   0   6   5   0   0   1 102
  10   0   0   6   0   0   0   0   0   7   0   0   9   6   0   6   0   0   0   0   0   0   0   0   0   0   0   0   0   0   0   1 102
  10   8   8   0   0   0   0   0   7   5   0   0   0   0   0   5   0   6   0   0   0   0   0   0   0   0   0   0   0   0   0   1 102
   7   0   0   0   0   0   9   0   0   0   0   0   0   0   0   0   0   6   0   0  10  10   0   0   5   0   5   0   0   0   0   1 102
   9   0   0   0   0   0   0   7   8   0   0   0  10   4   0   0   0   0   0   0   0   0   7   8   0   0   0   0   0   3   0   1 102
   5   0   0   0   0   0   0   0   7   0   0   0   0   0   0   6   0   0   0   0   5   4   0   0   0   0   0   0   0   0   0   1 102
   1   0   0   0   0   0   6   0   0   0   0   0   0   0   0   0   0   6   0   0   0   0   0   0   0   0   0   0   4   0   0   1 102
   0   0   0   0   0   0   0   0   0   0   0   0   0   0   0   0   0   0   0   0   0   0   0   0   0   0   0   0   0   0   0   0 
